c Random CNF formula
p cnf 200 49
-157 181 -98 0
-31 4 82 0
13 -53 -130 0
198 -92 -170 0
65 -112 -120 0
65 -43 74 0
-182 157 28 0
-152 -68 -6 0
-60 -135 -50 0
-5 -125 -163 0
36 -15 55 0
-185 -83 -189 0
-158 153 -155 0
113 60 19 0
1 -160 172 0
-111 -89 109 0
80 -51 -155 0
-179 -17 -150 0
48 51 25 0
61 -75 -182 0
17 199 -172 0
38 -145 90 0
29 -159 -60 0
34 99 -11 0
-125 -119 86 0
149 -36 -6 0
133 174 -45 0
113 135 98 0
200 -172 127 0
-168 131 -40 0
-184 -63 97 0
160 -188 -74 0
44 -100 149 0
17 74 -57 0
180 -56 -78 0
178 195 130 0
134 63 186 0
-183 -40 -87 0
108 30 -23 0
-98 -163 -63 0
54 -43 -128 0
-152 68 157 0
-170 86 -130 0
-109 -53 194 0
-82 -124 -52 0
160 184 189 0
200 -82 171 0
84 130 -165 0
-42 -114 -62 0
